
(set-logic ALL) 

(declare-datatype MyList ((Nil) (Cons (head Real) (tail MyList)) )) 
(declare-fun l0 () MyList) 
(declare-fun l1 () MyList) 
(declare-fun l2 () MyList) 
(declare-fun l3 () MyList) 
(declare-fun i0 () Real) 
(declare-fun i1 () Real) 
(assert (is-Cons l1) )
(assert (is-Nil Nil) )
(assert (= l0 Nil) )
(assert (or (= l0 Nil) (= l3 Nil) (is-Nil Nil) (is-Nil Nil)) )
(assert (= l1 Nil) )
(assert (or (= l2 Nil) (= l1 Nil)) )
(assert (is-Nil l0) )
(assert (not (is-Cons l0)) )
(check-sat)
